\ENCODING=ISO-8859-1
\Problem name: IloCplex

Maximize
 obj1: 0.2 G_1 + 0.8 G_4 + 0.8 G_5
Subject To
 c1: 300 G_1 + 614 G_5 + 300 G_2 + 7077988 G_3 <= 300
Bounds
      G_1 >= 0
      G_4 >= 0
      G_5 >= 0
      G_2 >= 0
      G_3 >= 0
Generals
 G_1  G_4  G_5  G_2  G_3 
End
